0 75 
1 76 
2 78 
3 80 
4 82 
5 80 
6 80 
7 78 
8 77 
9 75 
10 75 
11 76 
12 76 
13 77 
14 77 
15 77 
16 76 
17 74 
18 73 
19 72 
20 71 
21 71 
22 71 
23 70 
24 68 
25 67 
26 66 
27 65 
28 66 
29 66 
30 65 
31 63 
32 61 
33 61 
34 60 
35 61 
36 63 
37 60 
38 58 
39 52 
40 52 
41 51 
42 50 
43 50 
44 48 
45 50 
46 48 
47 48 
48 47 
49 46 
50 47 
51 45 
52 42 
53 42 
54 39 
55 36 
56 34 
57 34 
58 32 
59 31 
60 31 
61 31 
62 33 
63 33 
64 33 
65 31 
66 30 
67 29 
68 28 
69 29 
70 27 
71 28 
72 31 
73 34 
74 33 
75 31 
76 30 
77 30 
78 27 
79 25 
80 25 
81 26 
82 25 
83 25 
84 27 
85 26 
86 24 
87 23 
88 24 
89 23 
90 21 
91 19 
92 20 
93 18 
94 17 
95 16 
96 14 
97 12 
98 15 
99 14 
100 14 
101 13 
102 12 
103 13 
104 10 
105 11 
106 12 
107 11 
108 11 
109 11 
110 10 
111 9 
112 9 
113 8 
114 8 
115 6 
116 4 
117 4 
118 4 
119 3 
120 2 
121 1 
122 0 
123 0 

